84
86
97
98
73
74
75
76
71
83
87
100
95
96
99
106
108
118
120
109
110
105
117
121
135
129
130
136
131
132
107
119
85
52
39
64
63
65
53
51
40
38
31
19
17
6
5
18
30
29
1
7
8
2
16
20
32
27
28
41
61
66
54
50
49
43
44
48
55
59
60
77
78
82
89
93
94
88
122
128
111
112
113
114
103
115
124
133
125
126
134
127
123
116
104
101
92
91
102
90
81
69
80
79
70
67
58
57
68
56
47
35
46
45
36
33
25
21
14
24
23
34
22
13
4
12
11
3
10
9
26
15
37
42
62
72
84
